
Gurobi 8.1.0 (mac64, Python) logging started Mon Feb  4 21:42:48 2019

Academic license - for non-commercial use only
Optimize a model with 213 rows, 125 columns and 526 nonzeros
Variable types: 67 continuous, 58 integer (58 binary)
Coefficient statistics:
  Matrix range     [1e-01, 1e+02]
  Objective range  [1e+00, 2e+00]
  Bounds range     [1e+00, 1e+00]
  RHS range        [1e+00, 1e+03]
Presolve removed 3 rows and 0 columns
Presolve time: 0.00s

Explored 0 nodes (0 simplex iterations) in 0.00 seconds
Thread count was 1 (of 8 available processors)

Solution count 0

Model is infeasible
Best objective -, best bound -, gap -

Gurobi 8.1.0 (mac64, Python) logging started Mon Feb  4 21:46:46 2019

Academic license - for non-commercial use only
Optimize a model with 213 rows, 125 columns and 526 nonzeros
Variable types: 67 continuous, 58 integer (58 binary)
Coefficient statistics:
  Matrix range     [1e-01, 1e+02]
  Objective range  [1e+00, 2e+00]
  Bounds range     [1e+00, 1e+00]
  RHS range        [1e+00, 1e+03]
Presolve removed 3 rows and 0 columns
Presolve time: 0.00s

Explored 0 nodes (0 simplex iterations) in 0.00 seconds
Thread count was 1 (of 8 available processors)

Solution count 0

Model is infeasible
Best objective -, best bound -, gap -

Gurobi 8.1.0 (mac64, Python) logging started Mon Feb  4 21:51:05 2019

Academic license - for non-commercial use only
Optimize a model with 213 rows, 125 columns and 526 nonzeros
Variable types: 67 continuous, 58 integer (58 binary)
Coefficient statistics:
  Matrix range     [1e-01, 1e+02]
  Objective range  [1e+00, 2e+00]
  Bounds range     [1e+00, 1e+00]
  RHS range        [1e+00, 1e+02]
Found heuristic solution: objective 49.5489096
Presolve removed 60 rows and 39 columns
Presolve time: 0.01s
Presolved: 153 rows, 86 columns, 515 nonzeros
Variable types: 55 continuous, 31 integer (31 binary)

Root relaxation: objective 1.005061e+01, 54 iterations, 0.00 seconds

    Nodes    |    Current Node    |     Objective Bounds      |     Work
 Expl Unexpl |  Obj  Depth IntInf | Incumbent    BestBd   Gap | It/Node Time

     0     0   10.05061    0    5   49.54891   10.05061  79.7%     -    0s
H    0     0                      15.4077553   10.05061  34.8%     -    0s
H    0     0                      12.9077553   10.05061  22.1%     -    0s
     0     0     cutoff    0        12.90776   12.90776  0.00%     -    0s

Cutting planes:
  Gomory: 1
  MIR: 1
  Flow cover: 2

Explored 1 nodes (58 simplex iterations) in 0.03 seconds
Thread count was 8 (of 8 available processors)

Solution count 3: 12.9078 15.4078 49.5489 

Optimal solution found (tolerance 1.00e-04)
Best objective 1.290775527898e+01, best bound 1.290775527898e+01, gap 0.0000%
Optimize a model with 2509 rows, 1301 columns and 6828 nonzeros
Variable types: 651 continuous, 650 integer (650 binary)
Coefficient statistics:
  Matrix range     [5e-01, 1e+02]
  Objective range  [1e+00, 1e+00]
  Bounds range     [1e+00, 1e+00]
  RHS range        [1e-01, 1e+02]
Presolve removed 482 rows and 499 columns
Presolve time: 0.02s
Presolved: 2027 rows, 802 columns, 5895 nonzeros
Variable types: 309 continuous, 493 integer (493 binary)
Found heuristic solution: objective 6.0000000

Root relaxation: objective 7.854294e+00, 437 iterations, 0.00 seconds

    Nodes    |    Current Node    |     Objective Bounds      |     Work
 Expl Unexpl |  Obj  Depth IntInf | Incumbent    BestBd   Gap | It/Node Time

*    0     0               0       7.8542944    7.85429  0.00%     -    0s

Explored 0 nodes (437 simplex iterations) in 0.03 seconds
Thread count was 8 (of 8 available processors)

Solution count 2: 7.85429 6 

Optimal solution found (tolerance 1.00e-04)
Best objective 7.854294431250e+00, best bound 7.854294431250e+00, gap 0.0000%

Gurobi 8.1.0 (mac64, Python) logging started Mon Feb  4 21:51:45 2019

Academic license - for non-commercial use only
Optimize a model with 213 rows, 125 columns and 526 nonzeros
Variable types: 67 continuous, 58 integer (58 binary)
Coefficient statistics:
  Matrix range     [1e-01, 1e+02]
  Objective range  [1e+00, 2e+00]
  Bounds range     [1e+00, 1e+00]
  RHS range        [1e+00, 1e+03]
Presolve removed 3 rows and 0 columns
Presolve time: 0.00s

Explored 0 nodes (0 simplex iterations) in 0.00 seconds
Thread count was 1 (of 8 available processors)

Solution count 0

Model is infeasible
Best objective -, best bound -, gap -
